10	5
0	5	2	3	4	5	1
1	4	6	9	7	8
2	4	7	8	9	6
3	3	9	8	7
4	3	7	9	10
5	3	8	6	7
6	1	11
7	1	11
8	1	11
9	1	11
10	1	11
11	0
0	0	0	0	0	0	0
1	7	5	2	0	0	2
2	7	1	4	3	1	1
3	6	2	4	5	3	3
4	10	3	1	2	1	3
5	1	3	2	2	0	3
6	9	0	0	4	5	0
7	4	1	0	5	5	5
8	7	1	4	2	0	0
9	10	5	4	2	5	2
10	9	2	0	0	2	0
11	0	0	0	0	0	0
7	7	7	6	7
